c 0.006074428558349609 (encode time in sec)
p cnf 217 511
1 2 3 4 5 19 0
1 2 3 4 -5 21 0
1 2 3 -4 5 6 0
1 2 3 -4 -5 17 0
1 2 -3 4 5 7 0
1 2 -3 4 -5 8 0
1 2 -3 -4 5 9 0
1 2 -3 -4 -5 10 0
1 -2 3 4 5 11 0
1 -2 3 4 -5 12 0
1 -2 3 -4 5 13 0
1 -2 3 -4 -5 18 0
1 -2 -3 4 5 14 0
1 -2 -3 4 -5 15 0
1 -2 -3 -4 5 22 0
1 -2 -3 -4 -5 16 0
-1 2 3 4 5 20 0
-1 2 3 4 -5 0
-1 2 3 -4 5 0
-1 2 3 -4 -5 0
-1 2 -3 4 5 0
-1 2 -3 4 -5 0
-1 2 -3 -4 5 0
-1 2 -3 -4 -5 0
-1 -2 3 4 5 0
-1 -2 3 4 -5 0
-1 -2 3 -4 5 0
-1 -2 3 -4 -5 0
-1 -2 -3 4 5 0
-1 -2 -3 4 -5 0
-1 -2 -3 -4 5 0
-1 -2 -3 -4 -5 0
23 1 2 3 4 5 44 0
23 1 2 3 4 -5 46 0
23 1 2 3 -4 5 37 0
23 1 2 3 -4 -5 45 0
23 1 2 -3 4 5 24 0
23 1 2 -3 4 -5 25 0
23 1 2 -3 -4 5 26 0
23 1 2 -3 -4 -5 27 0
23 1 -2 3 4 5 28 0
23 1 -2 3 4 -5 29 0
23 1 -2 3 -4 5 30 0
23 1 -2 3 -4 -5 36 0
23 1 -2 -3 4 5 31 0
23 1 -2 -3 4 -5 47 0
23 1 -2 -3 -4 5 32 0
23 1 -2 -3 -4 -5 33 0
23 -1 2 3 4 5 38 0
-23 1 2 3 4 5 41 0
-23 1 2 3 4 -5 31 0
-23 1 2 3 -4 5 32 0
-23 1 2 3 -4 -5 34 0
-23 1 2 -3 4 5 35 0
-23 1 2 -3 4 -5 42 0
-23 1 2 -3 -4 5 49 0
-23 1 2 -3 -4 -5 52 0
-23 1 -2 3 4 5 39 0
-23 1 -2 3 4 -5 50 0
-23 1 -2 3 -4 5 43 0
-23 1 -2 3 -4 -5 51 0
-23 1 -2 -3 4 5 46 0
-23 1 -2 -3 4 -5 40 0
-23 1 -2 -3 -4 5 37 0
-23 1 -2 -3 -4 -5 33 0
-23 -1 2 3 4 5 48 0
53 54 55 56 23 1 2 3 4 5 100 0
53 54 55 56 23 1 2 3 4 -5 72 0
53 54 55 56 23 1 2 3 -4 5 211 0
53 54 55 56 23 1 2 3 -4 -5 79 0
53 54 55 56 23 1 2 -3 4 5 101 0
53 54 55 56 23 1 2 -3 4 -5 99 0
53 54 55 56 23 1 2 -3 -4 5 145 0
53 54 55 56 23 1 2 -3 -4 -5 135 0
53 54 55 56 23 1 -2 3 4 5 167 0
53 54 55 56 23 1 -2 3 4 -5 153 0
53 54 55 56 23 1 -2 3 -4 5 121 0
53 54 55 56 23 1 -2 3 -4 -5 65 0
53 54 55 56 23 1 -2 -3 4 5 95 0
53 54 55 56 23 1 -2 -3 4 -5 102 0
53 54 55 56 23 1 -2 -3 -4 5 80 0
53 54 55 56 23 1 -2 -3 -4 -5 79 0
53 54 55 56 23 -1 2 3 4 5 79 0
53 54 55 56 -23 1 2 3 4 5 91 0
53 54 55 56 -23 1 2 3 4 -5 57 0
53 54 55 56 -23 1 2 3 -4 5 188 0
53 54 55 56 -23 1 2 3 -4 -5 89 0
53 54 55 56 -23 1 2 -3 4 5 97 0
53 54 55 56 -23 1 2 -3 4 -5 217 0
53 54 55 56 -23 1 2 -3 -4 5 75 0
53 54 55 56 -23 1 2 -3 -4 -5 128 0
53 54 55 56 -23 1 -2 3 4 5 165 0
53 54 55 56 -23 1 -2 3 4 -5 171 0
53 54 55 56 -23 1 -2 3 -4 5 73 0
53 54 55 56 -23 1 -2 3 -4 -5 146 0
53 54 55 56 -23 1 -2 -3 4 5 173 0
53 54 55 56 -23 1 -2 -3 4 -5 58 0
53 54 55 56 -23 1 -2 -3 -4 5 100 0
53 54 55 56 -23 1 -2 -3 -4 -5 79 0
53 54 55 56 -23 -1 2 3 4 5 100 0
53 54 55 -56 23 1 2 3 4 5 100 0
53 54 55 -56 23 1 2 3 4 -5 72 0
53 54 55 -56 23 1 2 3 -4 5 211 0
53 54 55 -56 23 1 2 3 -4 -5 79 0
53 54 55 -56 23 1 2 -3 4 5 196 0
53 54 55 -56 23 1 2 -3 4 -5 155 0
53 54 55 -56 23 1 2 -3 -4 5 92 0
53 54 55 -56 23 1 2 -3 -4 -5 59 0
53 54 55 -56 23 1 -2 3 4 5 212 0
53 54 55 -56 23 1 -2 3 4 -5 156 0
53 54 55 -56 23 1 -2 3 -4 5 164 0
53 54 55 -56 23 1 -2 3 -4 -5 81 0
53 54 55 -56 23 1 -2 -3 4 5 196 0
53 54 55 -56 23 1 -2 -3 4 -5 174 0
53 54 55 -56 23 1 -2 -3 -4 5 80 0
53 54 55 -56 23 1 -2 -3 -4 -5 79 0
53 54 55 -56 23 -1 2 3 4 5 79 0
53 54 55 -56 -23 1 2 3 4 5 91 0
53 54 55 -56 -23 1 2 3 4 -5 57 0
53 54 55 -56 -23 1 2 3 -4 5 96 0
53 54 55 -56 -23 1 2 3 -4 -5 189 0
53 54 55 -56 -23 1 2 -3 4 5 132 0
53 54 55 -56 -23 1 2 -3 4 -5 205 0
53 54 55 -56 -23 1 2 -3 -4 5 114 0
53 54 55 -56 -23 1 2 -3 -4 -5 120 0
53 54 55 -56 -23 1 -2 3 4 5 133 0
53 54 55 -56 -23 1 -2 3 4 -5 131 0
53 54 55 -56 -23 1 -2 3 -4 5 73 0
53 54 55 -56 -23 1 -2 3 -4 -5 72 0
53 54 55 -56 -23 1 -2 -3 4 5 173 0
53 54 55 -56 -23 1 -2 -3 4 -5 58 0
53 54 55 -56 -23 1 -2 -3 -4 5 100 0
53 54 55 -56 -23 1 -2 -3 -4 -5 79 0
53 54 55 -56 -23 -1 2 3 4 5 100 0
53 54 -55 56 23 1 2 3 4 5 100 0
53 54 -55 56 23 1 2 3 4 -5 72 0
53 54 -55 56 23 1 2 3 -4 5 197 0
53 54 -55 56 23 1 2 3 -4 -5 198 0
53 54 -55 56 23 1 2 -3 4 5 176 0
53 54 -55 56 23 1 2 -3 4 -5 124 0
53 54 -55 56 23 1 2 -3 -4 5 64 0
53 54 -55 56 23 1 2 -3 -4 -5 206 0
53 54 -55 56 23 1 -2 3 4 5 86 0
53 54 -55 56 23 1 -2 3 4 -5 140 0
53 54 -55 56 23 1 -2 3 -4 5 60 0
53 54 -55 56 23 1 -2 3 -4 -5 137 0
53 54 -55 56 23 1 -2 -3 4 5 138 0
53 54 -55 56 23 1 -2 -3 4 -5 62 0
53 54 -55 56 23 1 -2 -3 -4 5 106 0
53 54 -55 56 23 1 -2 -3 -4 -5 79 0
53 54 -55 56 23 -1 2 3 4 5 103 0
53 54 -55 56 -23 1 2 3 4 5 123 0
53 54 -55 56 -23 1 2 3 4 -5 61 0
53 54 -55 56 -23 1 2 3 -4 5 157 0
53 54 -55 56 -23 1 2 3 -4 -5 66 0
53 54 -55 56 -23 1 2 -3 4 5 78 0
53 54 -55 56 -23 1 2 -3 4 -5 148 0
53 54 -55 56 -23 1 2 -3 -4 5 175 0
53 54 -55 56 -23 1 2 -3 -4 -5 210 0
53 54 -55 56 -23 1 -2 3 4 5 125 0
53 54 -55 56 -23 1 -2 3 4 -5 163 0
53 54 -55 56 -23 1 -2 3 -4 5 141 0
53 54 -55 56 -23 1 -2 3 -4 -5 72 0
53 54 -55 56 -23 1 -2 -3 4 5 136 0
53 54 -55 56 -23 1 -2 -3 4 -5 58 0
53 54 -55 56 -23 1 -2 -3 -4 5 100 0
53 54 -55 56 -23 1 -2 -3 -4 -5 79 0
53 54 -55 56 -23 -1 2 3 4 5 100 0
53 54 -55 -56 23 1 2 3 4 5 100 0
53 54 -55 -56 23 1 2 3 4 -5 104 0
53 54 -55 -56 23 1 2 3 -4 5 199 0
53 54 -55 -56 23 1 2 3 -4 -5 139 0
53 54 -55 -56 23 1 2 -3 4 5 63 0
53 54 -55 -56 23 1 2 -3 4 -5 105 0
53 54 -55 -56 23 1 2 -3 -4 5 107 0
53 54 -55 -56 23 1 2 -3 -4 -5 213 0
53 54 -55 -56 23 1 -2 3 4 5 142 0
53 54 -55 -56 23 1 -2 3 4 -5 177 0
53 54 -55 -56 23 1 -2 3 -4 5 108 0
53 54 -55 -56 23 1 -2 3 -4 -5 178 0
53 54 -55 -56 23 1 -2 -3 4 5 179 0
53 54 -55 -56 23 1 -2 -3 4 -5 143 0
53 54 -55 -56 23 1 -2 -3 -4 5 180 0
53 54 -55 -56 23 1 -2 -3 -4 -5 103 0
53 54 -55 -56 23 -1 2 3 4 5 79 0
53 54 -55 -56 -23 1 2 3 4 5 200 0
53 54 -55 -56 -23 1 2 3 4 -5 60 0
53 54 -55 -56 -23 1 2 3 -4 5 109 0
53 54 -55 -56 -23 1 2 3 -4 -5 181 0
53 54 -55 -56 -23 1 2 -3 4 5 144 0
53 54 -55 -56 -23 1 2 -3 4 -5 186 0
53 54 -55 -56 -23 1 2 -3 -4 5 87 0
53 54 -55 -56 -23 1 2 -3 -4 -5 207 0
53 54 -55 -56 -23 1 -2 3 4 5 194 0
53 54 -55 -56 -23 1 -2 3 4 -5 119 0
53 54 -55 -56 -23 1 -2 3 -4 5 216 0
53 54 -55 -56 -23 1 -2 3 -4 -5 182 0
53 54 -55 -56 -23 1 -2 -3 4 5 103 0
53 54 -55 -56 -23 1 -2 -3 4 -5 58 0
53 54 -55 -56 -23 1 -2 -3 -4 5 100 0
53 54 -55 -56 -23 1 -2 -3 -4 -5 79 0
53 54 -55 -56 -23 -1 2 3 4 5 100 0
53 -54 55 56 23 1 2 3 4 5 100 0
53 -54 55 56 23 1 2 3 4 -5 72 0
53 -54 55 56 23 1 2 3 -4 5 197 0
53 -54 55 56 23 1 2 3 -4 -5 166 0
53 -54 55 56 23 1 2 -3 4 5 201 0
53 -54 55 56 23 1 2 -3 4 -5 187 0
53 -54 55 56 23 1 2 -3 -4 5 172 0
53 -54 55 56 23 1 2 -3 -4 -5 110 0
53 -54 55 56 23 1 -2 3 4 5 202 0
53 -54 55 56 23 1 -2 3 4 -5 140 0
53 -54 55 56 23 1 -2 3 -4 5 76 0
53 -54 55 56 23 1 -2 3 -4 -5 126 0
53 -54 55 56 23 1 -2 -3 4 5 61 0
53 -54 55 56 23 1 -2 -3 4 -5 94 0
53 -54 55 56 23 1 -2 -3 -4 5 158 0
53 -54 55 56 23 1 -2 -3 -4 -5 79 0
53 -54 55 56 23 -1 2 3 4 5 79 0
53 -54 55 56 -23 1 2 3 4 5 123 0
53 -54 55 56 -23 1 2 3 4 -5 67 0
53 -54 55 56 -23 1 2 3 -4 5 159 0
53 -54 55 56 -23 1 2 3 -4 -5 122 0
53 -54 55 56 -23 1 2 -3 4 5 158 0
53 -54 55 56 -23 1 2 -3 4 -5 112 0
53 -54 55 56 -23 1 2 -3 -4 5 160 0
53 -54 55 56 -23 1 2 -3 -4 -5 154 0
53 -54 55 56 -23 1 -2 3 4 5 192 0
53 -54 55 56 -23 1 -2 3 4 -5 209 0
53 -54 55 56 -23 1 -2 3 -4 5 70 0
53 -54 55 56 -23 1 -2 3 -4 -5 182 0
53 -54 55 56 -23 1 -2 -3 4 5 77 0
53 -54 55 56 -23 1 -2 -3 4 -5 61 0
53 -54 55 56 -23 1 -2 -3 -4 5 100 0
53 -54 55 56 -23 1 -2 -3 -4 -5 79 0
53 -54 55 56 -23 -1 2 3 4 5 100 0
53 -54 55 -56 23 1 2 3 4 5 100 0
53 -54 55 -56 23 1 2 3 4 -5 72 0
53 -54 55 -56 23 1 2 3 -4 5 211 0
53 -54 55 -56 23 1 2 3 -4 -5 149 0
53 -54 55 -56 23 1 2 -3 4 5 161 0
53 -54 55 -56 23 1 2 -3 4 -5 170 0
53 -54 55 -56 23 1 2 -3 -4 5 190 0
53 -54 55 -56 23 1 2 -3 -4 -5 130 0
53 -54 55 -56 23 1 -2 3 4 5 115 0
53 -54 55 -56 23 1 -2 3 4 -5 150 0
53 -54 55 -56 23 1 -2 3 -4 5 162 0
53 -54 55 -56 23 1 -2 3 -4 -5 74 0
53 -54 55 -56 23 1 -2 -3 4 5 82 0
53 -54 55 -56 23 1 -2 -3 4 -5 102 0
53 -54 55 -56 23 1 -2 -3 -4 5 80 0
53 -54 55 -56 23 1 -2 -3 -4 -5 79 0
53 -54 55 -56 23 -1 2 3 4 5 79 0
53 -54 55 -56 -23 1 2 3 4 5 141 0
53 -54 55 -56 -23 1 2 3 4 -5 68 0
53 -54 55 -56 -23 1 2 3 -4 5 116 0
53 -54 55 -56 -23 1 2 3 -4 -5 83 0
53 -54 55 -56 -23 1 2 -3 4 5 111 0
53 -54 55 -56 -23 1 2 -3 4 -5 134 0
53 -54 55 -56 -23 1 2 -3 -4 5 117 0
53 -54 55 -56 -23 1 2 -3 -4 -5 168 0
53 -54 55 -56 -23 1 -2 3 4 5 103 0
53 -54 55 -56 -23 1 -2 3 4 -5 203 0
53 -54 55 -56 -23 1 -2 3 -4 5 200 0
53 -54 55 -56 -23 1 -2 3 -4 -5 155 0
53 -54 55 -56 -23 1 -2 -3 4 5 103 0
53 -54 55 -56 -23 1 -2 -3 4 -5 58 0
53 -54 55 -56 -23 1 -2 -3 -4 5 100 0
53 -54 55 -56 -23 1 -2 -3 -4 -5 103 0
53 -54 55 -56 -23 -1 2 3 4 5 100 0
53 -54 -55 56 23 1 2 3 4 5 100 0
53 -54 -55 56 23 1 2 3 4 -5 72 0
53 -54 -55 56 23 1 2 3 -4 5 211 0
53 -54 -55 56 23 1 2 3 -4 -5 149 0
53 -54 -55 56 23 1 2 -3 4 5 161 0
53 -54 -55 56 23 1 2 -3 4 -5 99 0
53 -54 -55 56 23 1 2 -3 -4 5 183 0
53 -54 -55 56 23 1 2 -3 -4 -5 135 0
53 -54 -55 56 23 1 -2 3 4 5 98 0
53 -54 -55 56 23 1 -2 3 4 -5 153 0
53 -54 -55 56 23 1 -2 3 -4 5 121 0
53 -54 -55 56 23 1 -2 3 -4 -5 65 0
53 -54 -55 56 23 1 -2 -3 4 5 95 0
53 -54 -55 56 23 1 -2 -3 4 -5 102 0
53 -54 -55 56 23 1 -2 -3 -4 5 80 0
53 -54 -55 56 23 1 -2 -3 -4 -5 79 0
53 -54 -55 56 23 -1 2 3 4 5 79 0
53 -54 -55 56 -23 1 2 3 4 5 91 0
53 -54 -55 56 -23 1 2 3 4 -5 58 0
53 -54 -55 56 -23 1 2 3 -4 5 191 0
53 -54 -55 56 -23 1 2 3 -4 -5 189 0
53 -54 -55 56 -23 1 2 -3 4 5 132 0
53 -54 -55 56 -23 1 2 -3 4 -5 113 0
53 -54 -55 56 -23 1 2 -3 -4 5 208 0
53 -54 -55 56 -23 1 2 -3 -4 -5 93 0
53 -54 -55 56 -23 1 -2 3 4 5 169 0
53 -54 -55 56 -23 1 -2 3 4 -5 193 0
53 -54 -55 56 -23 1 -2 3 -4 5 91 0
53 -54 -55 56 -23 1 -2 3 -4 -5 72 0
53 -54 -55 56 -23 1 -2 -3 4 5 173 0
53 -54 -55 56 -23 1 -2 -3 4 -5 58 0
53 -54 -55 56 -23 1 -2 -3 -4 5 100 0
53 -54 -55 56 -23 1 -2 -3 -4 -5 79 0
53 -54 -55 56 -23 -1 2 3 4 5 100 0
53 -54 -55 -56 23 1 2 3 4 5 100 0
53 -54 -55 -56 23 1 2 3 4 -5 72 0
53 -54 -55 -56 23 1 2 3 -4 5 211 0
53 -54 -55 -56 23 1 2 3 -4 -5 149 0
53 -54 -55 -56 23 1 2 -3 4 5 161 0
53 -54 -55 -56 23 1 2 -3 4 -5 99 0
53 -54 -55 -56 23 1 2 -3 -4 5 183 0
53 -54 -55 -56 23 1 2 -3 -4 -5 151 0
53 -54 -55 -56 23 1 -2 3 4 5 98 0
53 -54 -55 -56 23 1 -2 3 4 -5 153 0
53 -54 -55 -56 23 1 -2 3 -4 5 121 0
53 -54 -55 -56 23 1 -2 3 -4 -5 65 0
53 -54 -55 -56 23 1 -2 -3 4 5 95 0
53 -54 -55 -56 23 1 -2 -3 4 -5 102 0
53 -54 -55 -56 23 1 -2 -3 -4 5 80 0
53 -54 -55 -56 23 1 -2 -3 -4 -5 79 0
53 -54 -55 -56 23 -1 2 3 4 5 79 0
53 -54 -55 -56 -23 1 2 3 4 5 91 0
53 -54 -55 -56 -23 1 2 3 4 -5 57 0
53 -54 -55 -56 -23 1 2 3 -4 5 129 0
53 -54 -55 -56 -23 1 2 3 -4 -5 118 0
53 -54 -55 -56 -23 1 2 -3 4 5 132 0
53 -54 -55 -56 -23 1 2 -3 4 -5 204 0
53 -54 -55 -56 -23 1 2 -3 -4 5 72 0
53 -54 -55 -56 -23 1 2 -3 -4 -5 120 0
53 -54 -55 -56 -23 1 -2 3 4 5 195 0
53 -54 -55 -56 -23 1 -2 3 4 -5 84 0
53 -54 -55 -56 -23 1 -2 3 -4 5 84 0
53 -54 -55 -56 -23 1 -2 3 -4 -5 146 0
53 -54 -55 -56 -23 1 -2 -3 4 5 173 0
53 -54 -55 -56 -23 1 -2 -3 4 -5 69 0
53 -54 -55 -56 -23 1 -2 -3 -4 5 100 0
53 -54 -55 -56 -23 1 -2 -3 -4 -5 79 0
53 -54 -55 -56 -23 -1 2 3 4 5 100 0
-53 54 55 56 23 1 2 3 4 5 100 0
-53 54 55 56 23 1 2 3 4 -5 72 0
-53 54 55 56 23 1 2 3 -4 5 211 0
-53 54 55 56 23 1 2 3 -4 -5 149 0
-53 54 55 56 23 1 2 -3 4 5 161 0
-53 54 55 56 23 1 2 -3 4 -5 99 0
-53 54 55 56 23 1 2 -3 -4 5 183 0
-53 54 55 56 23 1 2 -3 -4 -5 151 0
-53 54 55 56 23 1 -2 3 4 5 98 0
-53 54 55 56 23 1 -2 3 4 -5 153 0
-53 54 55 56 23 1 -2 3 -4 5 121 0
-53 54 55 56 23 1 -2 3 -4 -5 65 0
-53 54 55 56 23 1 -2 -3 4 5 95 0
-53 54 55 56 23 1 -2 -3 4 -5 102 0
-53 54 55 56 23 1 -2 -3 -4 5 80 0
-53 54 55 56 23 1 -2 -3 -4 -5 79 0
-53 54 55 56 23 -1 2 3 4 5 79 0
-53 54 55 56 -23 1 2 3 4 5 91 0
-53 54 55 56 -23 1 2 3 4 -5 57 0
-53 54 55 56 -23 1 2 3 -4 5 152 0
-53 54 55 56 -23 1 2 3 -4 -5 71 0
-53 54 55 56 -23 1 2 -3 4 5 132 0
-53 54 55 56 -23 1 2 -3 4 -5 214 0
-53 54 55 56 -23 1 2 -3 -4 5 114 0
-53 54 55 56 -23 1 2 -3 -4 -5 147 0
-53 54 55 56 -23 1 -2 3 4 5 184 0
-53 54 55 56 -23 1 -2 3 4 -5 193 0
-53 54 55 56 -23 1 -2 3 -4 5 73 0
-53 54 55 56 -23 1 -2 3 -4 -5 146 0
-53 54 55 56 -23 1 -2 -3 4 5 173 0
-53 54 55 56 -23 1 -2 -3 4 -5 58 0
-53 54 55 56 -23 1 -2 -3 -4 5 100 0
-53 54 55 56 -23 1 -2 -3 -4 -5 79 0
-53 54 55 56 -23 -1 2 3 4 5 100 0
-53 54 55 -56 23 1 2 3 4 5 100 0
-53 54 55 -56 23 1 2 3 4 -5 72 0
-53 54 55 -56 23 1 2 3 -4 5 211 0
-53 54 55 -56 23 1 2 3 -4 -5 149 0
-53 54 55 -56 23 1 2 -3 4 5 161 0
-53 54 55 -56 23 1 2 -3 4 -5 99 0
-53 54 55 -56 23 1 2 -3 -4 5 183 0
-53 54 55 -56 23 1 2 -3 -4 -5 151 0
-53 54 55 -56 23 1 -2 3 4 5 98 0
-53 54 55 -56 23 1 -2 3 4 -5 153 0
-53 54 55 -56 23 1 -2 3 -4 5 121 0
-53 54 55 -56 23 1 -2 3 -4 -5 65 0
-53 54 55 -56 23 1 -2 -3 4 5 95 0
-53 54 55 -56 23 1 -2 -3 4 -5 102 0
-53 54 55 -56 23 1 -2 -3 -4 5 80 0
-53 54 55 -56 23 1 -2 -3 -4 -5 79 0
-53 54 55 -56 23 -1 2 3 4 5 79 0
-53 54 55 -56 -23 1 2 3 4 5 91 0
-53 54 55 -56 -23 1 2 3 4 -5 57 0
-53 54 55 -56 -23 1 2 3 -4 5 152 0
-53 54 55 -56 -23 1 2 3 -4 -5 89 0
-53 54 55 -56 -23 1 2 -3 4 5 97 0
-53 54 55 -56 -23 1 2 -3 4 -5 217 0
-53 54 55 -56 -23 1 2 -3 -4 5 85 0
-53 54 55 -56 -23 1 2 -3 -4 -5 90 0
-53 54 55 -56 -23 1 -2 3 4 5 88 0
-53 54 55 -56 -23 1 -2 3 4 -5 131 0
-53 54 55 -56 -23 1 -2 3 -4 5 73 0
-53 54 55 -56 -23 1 -2 3 -4 -5 146 0
-53 54 55 -56 -23 1 -2 -3 4 5 173 0
-53 54 55 -56 -23 1 -2 -3 4 -5 58 0
-53 54 55 -56 -23 1 -2 -3 -4 5 100 0
-53 54 55 -56 -23 1 -2 -3 -4 -5 79 0
-53 54 55 -56 -23 -1 2 3 4 5 100 0
-53 54 -55 56 23 1 2 3 4 5 100 0
-53 54 -55 56 23 1 2 3 4 -5 72 0
-53 54 -55 56 23 1 2 3 -4 5 211 0
-53 54 -55 56 23 1 2 3 -4 -5 149 0
-53 54 -55 56 23 1 2 -3 4 5 161 0
-53 54 -55 56 23 1 2 -3 4 -5 99 0
-53 54 -55 56 23 1 2 -3 -4 5 183 0
-53 54 -55 56 23 1 2 -3 -4 -5 151 0
-53 54 -55 56 23 1 -2 3 4 5 98 0
-53 54 -55 56 23 1 -2 3 4 -5 153 0
-53 54 -55 56 23 1 -2 3 -4 5 121 0
-53 54 -55 56 23 1 -2 3 -4 -5 65 0
-53 54 -55 56 23 1 -2 -3 4 5 95 0
-53 54 -55 56 23 1 -2 -3 4 -5 102 0
-53 54 -55 56 23 1 -2 -3 -4 5 80 0
-53 54 -55 56 23 1 -2 -3 -4 -5 79 0
-53 54 -55 56 23 -1 2 3 4 5 79 0
-53 54 -55 56 -23 1 2 3 4 5 123 0
-53 54 -55 56 -23 1 2 3 4 -5 57 0
-53 54 -55 56 -23 1 2 3 -4 5 188 0
-53 54 -55 56 -23 1 2 3 -4 -5 89 0
-53 54 -55 56 -23 1 2 -3 4 5 97 0
-53 54 -55 56 -23 1 2 -3 4 -5 217 0
-53 54 -55 56 -23 1 2 -3 -4 5 85 0
-53 54 -55 56 -23 1 2 -3 -4 -5 185 0
-53 54 -55 56 -23 1 -2 3 4 5 127 0
-53 54 -55 56 -23 1 -2 3 4 -5 84 0
-53 54 -55 56 -23 1 -2 3 -4 5 84 0
-53 54 -55 56 -23 1 -2 3 -4 -5 146 0
-53 54 -55 56 -23 1 -2 -3 4 5 173 0
-53 54 -55 56 -23 1 -2 -3 4 -5 58 0
-53 54 -55 56 -23 1 -2 -3 -4 5 100 0
-53 54 -55 56 -23 1 -2 -3 -4 -5 79 0
-53 54 -55 56 -23 -1 2 3 4 5 100 0
-53 54 -55 -56 23 1 2 3 4 5 100 0
-53 54 -55 -56 23 1 2 3 4 -5 72 0
-53 54 -55 -56 23 1 2 3 -4 5 211 0
-53 54 -55 -56 23 1 2 3 -4 -5 149 0
-53 54 -55 -56 23 1 2 -3 4 5 161 0
-53 54 -55 -56 23 1 2 -3 4 -5 99 0
-53 54 -55 -56 23 1 2 -3 -4 5 183 0
-53 54 -55 -56 23 1 2 -3 -4 -5 151 0
-53 54 -55 -56 23 1 -2 3 4 5 98 0
-53 54 -55 -56 23 1 -2 3 4 -5 153 0
-53 54 -55 -56 23 1 -2 3 -4 5 121 0
-53 54 -55 -56 23 1 -2 3 -4 -5 65 0
-53 54 -55 -56 23 1 -2 -3 4 5 95 0
-53 54 -55 -56 23 1 -2 -3 4 -5 102 0
-53 54 -55 -56 23 1 -2 -3 -4 5 80 0
-53 54 -55 -56 23 1 -2 -3 -4 -5 79 0
-53 54 -55 -56 23 -1 2 3 4 5 79 0
-53 54 -55 -56 -23 1 2 3 4 5 91 0
-53 54 -55 -56 -23 1 2 3 4 -5 57 0
-53 54 -55 -56 -23 1 2 3 -4 5 188 0
-53 54 -55 -56 -23 1 2 3 -4 -5 89 0
-53 54 -55 -56 -23 1 2 -3 4 5 97 0
-53 54 -55 -56 -23 1 2 -3 4 -5 215 0
-53 54 -55 -56 -23 1 2 -3 -4 5 75 0
-53 54 -55 -56 -23 1 2 -3 -4 -5 128 0
-53 54 -55 -56 -23 1 -2 3 4 5 127 0
-53 54 -55 -56 -23 1 -2 3 4 -5 171 0
-53 54 -55 -56 -23 1 -2 3 -4 5 73 0
-53 54 -55 -56 -23 1 -2 3 -4 -5 146 0
-53 54 -55 -56 -23 1 -2 -3 4 5 173 0
-53 54 -55 -56 -23 1 -2 -3 4 -5 58 0
-53 54 -55 -56 -23 1 -2 -3 -4 5 100 0
-53 54 -55 -56 -23 1 -2 -3 -4 -5 79 0
-53 54 -55 -56 -23 -1 2 3 4 5 100 0
-53 -54 55 56 23 1 2 3 4 5 100 0
-53 -54 55 56 23 1 2 3 4 -5 72 0
-53 -54 55 56 23 1 2 3 -4 5 211 0
-53 -54 55 56 23 1 2 3 -4 -5 149 0
-53 -54 55 56 23 1 2 -3 4 5 161 0
-53 -54 55 56 23 1 2 -3 4 -5 99 0
-53 -54 55 56 23 1 2 -3 -4 5 183 0
-53 -54 55 56 23 1 2 -3 -4 -5 151 0
-53 -54 55 56 23 1 -2 3 4 5 98 0
-53 -54 55 56 23 1 -2 3 4 -5 153 0
-53 -54 55 56 23 1 -2 3 -4 5 121 0
-53 -54 55 56 23 1 -2 3 -4 -5 65 0
-53 -54 55 56 23 1 -2 -3 4 5 95 0
-53 -54 55 56 23 1 -2 -3 4 -5 102 0
-53 -54 55 56 23 1 -2 -3 -4 5 80 0
-53 -54 55 56 23 1 -2 -3 -4 -5 79 0
-53 -54 55 56 23 -1 2 3 4 5 79 0
-53 -54 55 56 -23 1 2 3 4 5 91 0
-53 -54 55 56 -23 1 2 3 4 -5 57 0
-53 -54 55 56 -23 1 2 3 -4 5 188 0
-53 -54 55 56 -23 1 2 3 -4 -5 89 0
-53 -54 55 56 -23 1 2 -3 4 5 132 0
-53 -54 55 56 -23 1 2 -3 4 -5 217 0
-53 -54 55 56 -23 1 2 -3 -4 5 75 0
-53 -54 55 56 -23 1 2 -3 -4 -5 185 0
-53 -54 55 56 -23 1 -2 3 4 5 165 0
-53 -54 55 56 -23 1 -2 3 4 -5 171 0
-53 -54 55 56 -23 1 -2 3 -4 5 73 0
-53 -54 55 56 -23 1 -2 3 -4 -5 146 0
-53 -54 55 56 -23 1 -2 -3 4 5 173 0
-53 -54 55 56 -23 1 -2 -3 4 -5 58 0
-53 -54 55 56 -23 1 -2 -3 -4 5 100 0
-53 -54 55 56 -23 1 -2 -3 -4 -5 79 0
-53 -54 55 56 -23 -1 2 3 4 5 100 0
-53 -54 55 -56 0
-53 -54 -55 56 0
-53 -54 -55 -56 0
